p cnf 24 584 
-1 17 0 
-13 5 0 
-1 18 0 
-13 6 0 
-1 19 0 
-13 7 0 
-1 20 0 
-13 8 0 
-2 17 0 
-14 5 0 
-2 18 0 
-14 6 0 
-2 19 0 
-14 7 0 
-2 20 0 
-14 8 0 
-3 17 0 
-15 5 0 
-3 18 0 
-15 6 0 
-3 19 0 
-15 7 0 
-3 20 0 
-15 8 0 
-4 17 0 
-16 5 0 
-4 18 0 
-16 6 0 
-4 19 0 
-16 7 0 
-4 20 0 
-16 8 0 
-1 21 0 
-13 9 0 
-1 22 0 
-13 10 0 
-1 23 0 
-13 11 0 
-1 24 0 
-13 12 0 
-2 21 0 
-14 9 0 
-2 22 0 
-14 10 0 
-2 23 0 
-14 11 0 
-2 24 0 
-14 12 0 
-3 21 0 
-15 9 0 
-3 22 0 
-15 10 0 
-3 23 0 
-15 11 0 
-3 24 0 
-15 12 0 
-4 21 0 
-16 9 0 
-4 22 0 
-16 10 0 
-4 23 0 
-16 11 0 
-4 24 0 
-16 12 0 
-5 13 0 
-17 1 0 
-5 14 0 
-17 2 0 
-5 15 0 
-17 3 0 
-5 16 0 
-17 4 0 
-6 13 0 
-18 1 0 
-6 14 0 
-18 2 0 
-6 15 0 
-18 3 0 
-6 16 0 
-18 4 0 
-7 13 0 
-19 1 0 
-7 14 0 
-19 2 0 
-7 15 0 
-19 3 0 
-7 16 0 
-19 4 0 
-8 13 0 
-20 1 0 
-8 14 0 
-20 2 0 
-8 15 0 
-20 3 0 
-8 16 0 
-20 4 0 
-5 21 0 
-17 9 0 
-5 22 0 
-17 10 0 
-5 23 0 
-17 11 0 
-5 24 0 
-17 12 0 
-6 21 0 
-18 9 0 
-6 22 0 
-18 10 0 
-6 23 0 
-18 11 0 
-6 24 0 
-18 12 0 
-7 21 0 
-19 9 0 
-7 22 0 
-19 10 0 
-7 23 0 
-19 11 0 
-7 24 0 
-19 12 0 
-8 21 0 
-20 9 0 
-8 22 0 
-20 10 0 
-8 23 0 
-20 11 0 
-8 24 0 
-20 12 0 
-9 13 0 
-21 1 0 
-9 14 0 
-21 2 0 
-9 15 0 
-21 3 0 
-9 16 0 
-21 4 0 
-10 13 0 
-22 1 0 
-10 14 0 
-22 2 0 
-10 15 0 
-22 3 0 
-10 16 0 
-22 4 0 
-11 13 0 
-23 1 0 
-11 14 0 
-23 2 0 
-11 15 0 
-23 3 0 
-11 16 0 
-23 4 0 
-12 13 0 
-24 1 0 
-12 14 0 
-24 2 0 
-12 15 0 
-24 3 0 
-12 16 0 
-24 4 0 
-9 17 0 
-21 5 0 
-9 18 0 
-21 6 0 
-9 19 0 
-21 7 0 
-9 20 0 
-21 8 0 
-10 17 0 
-22 5 0 
-10 18 0 
-22 6 0 
-10 19 0 
-22 7 0 
-10 20 0 
-22 8 0 
-11 17 0 
-23 5 0 
-11 18 0 
-23 6 0 
-11 19 0 
-23 7 0 
-11 20 0 
-23 8 0 
-12 17 0 
-24 5 0 
-12 18 0 
-24 6 0 
-12 19 0 
-24 7 0 
-12 20 0 
-24 8 0 
-13 5 0 
-1 17 0 
-13 6 0 
-1 18 0 
-13 7 0 
-1 19 0 
-13 8 0 
-1 20 0 
-14 5 0 
-2 17 0 
-14 6 0 
-2 18 0 
-14 7 0 
-2 19 0 
-14 8 0 
-2 20 0 
-15 5 0 
-3 17 0 
-15 6 0 
-3 18 0 
-15 7 0 
-3 19 0 
-15 8 0 
-3 20 0 
-16 5 0 
-4 17 0 
-16 6 0 
-4 18 0 
-16 7 0 
-4 19 0 
-16 8 0 
-4 20 0 
-13 9 0 
-1 21 0 
-13 10 0 
-1 22 0 
-13 11 0 
-1 23 0 
-13 12 0 
-1 24 0 
-14 9 0 
-2 21 0 
-14 10 0 
-2 22 0 
-14 11 0 
-2 23 0 
-14 12 0 
-2 24 0 
-15 9 0 
-3 21 0 
-15 10 0 
-3 22 0 
-15 11 0 
-3 23 0 
-15 12 0 
-3 24 0 
-16 9 0 
-4 21 0 
-16 10 0 
-4 22 0 
-16 11 0 
-4 23 0 
-16 12 0 
-4 24 0 
-17 1 0 
-5 13 0 
-17 2 0 
-5 14 0 
-17 3 0 
-5 15 0 
-17 4 0 
-5 16 0 
-18 1 0 
-6 13 0 
-18 2 0 
-6 14 0 
-18 3 0 
-6 15 0 
-18 4 0 
-6 16 0 
-19 1 0 
-7 13 0 
-19 2 0 
-7 14 0 
-19 3 0 
-7 15 0 
-19 4 0 
-7 16 0 
-20 1 0 
-8 13 0 
-20 2 0 
-8 14 0 
-20 3 0 
-8 15 0 
-20 4 0 
-8 16 0 
-17 9 0 
-5 21 0 
-17 10 0 
-5 22 0 
-17 11 0 
-5 23 0 
-17 12 0 
-5 24 0 
-18 9 0 
-6 21 0 
-18 10 0 
-6 22 0 
-18 11 0 
-6 23 0 
-18 12 0 
-6 24 0 
-19 9 0 
-7 21 0 
-19 10 0 
-7 22 0 
-19 11 0 
-7 23 0 
-19 12 0 
-7 24 0 
-20 9 0 
-8 21 0 
-20 10 0 
-8 22 0 
-20 11 0 
-8 23 0 
-20 12 0 
-8 24 0 
-21 1 0 
-9 13 0 
-21 2 0 
-9 14 0 
-21 3 0 
-9 15 0 
-21 4 0 
-9 16 0 
-22 1 0 
-10 13 0 
-22 2 0 
-10 14 0 
-22 3 0 
-10 15 0 
-22 4 0 
-10 16 0 
-23 1 0 
-11 13 0 
-23 2 0 
-11 14 0 
-23 3 0 
-11 15 0 
-23 4 0 
-11 16 0 
-24 1 0 
-12 13 0 
-24 2 0 
-12 14 0 
-24 3 0 
-12 15 0 
-24 4 0 
-12 16 0 
-21 5 0 
-9 17 0 
-21 6 0 
-9 18 0 
-21 7 0 
-9 19 0 
-21 8 0 
-9 20 0 
-22 5 0 
-10 17 0 
-22 6 0 
-10 18 0 
-22 7 0 
-10 19 0 
-22 8 0 
-10 20 0 
-23 5 0 
-11 17 0 
-23 6 0 
-11 18 0 
-23 7 0 
-11 19 0 
-23 8 0 
-11 20 0 
-24 5 0 
-12 17 0 
-24 6 0 
-12 18 0 
-24 7 0 
-12 19 0 
-24 8 0 
-12 20 0 
-1 -2 -14 0 
-1 -3 -15 0 
-1 -4 -16 0 
-2 -1 -13 0 
-2 -3 -15 0 
-2 -4 -16 0 
-3 -1 -13 0 
-3 -2 -14 0 
-3 -4 -16 0 
-4 -1 -13 0 
-4 -2 -14 0 
-4 -3 -15 0 
-5 -6 -18 0 
-5 -7 -19 0 
-5 -8 -20 0 
-6 -5 -17 0 
-6 -7 -19 0 
-6 -8 -20 0 
-7 -5 -17 0 
-7 -6 -18 0 
-7 -8 -20 0 
-8 -5 -17 0 
-8 -6 -18 0 
-8 -7 -19 0 
-9 -10 -22 0 
-9 -11 -23 0 
-9 -12 -24 0 
-10 -9 -21 0 
-10 -11 -23 0 
-10 -12 -24 0 
-11 -9 -21 0 
-11 -10 -22 0 
-11 -12 -24 0 
-12 -9 -21 0 
-12 -10 -22 0 
-12 -11 -23 0 
-13 -14 -2 0 
-13 -15 -3 0 
-13 -16 -4 0 
-14 -13 -1 0 
-14 -15 -3 0 
-14 -16 -4 0 
-15 -13 -1 0 
-15 -14 -2 0 
-15 -16 -4 0 
-16 -13 -1 0 
-16 -14 -2 0 
-16 -15 -3 0 
-17 -18 -6 0 
-17 -19 -7 0 
-17 -20 -8 0 
-18 -17 -5 0 
-18 -19 -7 0 
-18 -20 -8 0 
-19 -17 -5 0 
-19 -18 -6 0 
-19 -20 -8 0 
-20 -17 -5 0 
-20 -18 -6 0 
-20 -19 -7 0 
-21 -22 -10 0 
-21 -23 -11 0 
-21 -24 -12 0 
-22 -21 -9 0 
-22 -23 -11 0 
-22 -24 -12 0 
-23 -21 -9 0 
-23 -22 -10 0 
-23 -24 -12 0 
-24 -21 -9 0 
-24 -22 -10 0 
-24 -23 -11 0 
-1 -5 0 
-13 -17 0 
-1 -6 0 
-13 -18 0 
-1 -7 0 
-13 -19 0 
-1 -8 0 
-13 -20 0 
-2 -5 0 
-14 -17 0 
-2 -6 0 
-14 -18 0 
-2 -7 0 
-14 -19 0 
-2 -8 0 
-14 -20 0 
-3 -5 0 
-15 -17 0 
-3 -6 0 
-15 -18 0 
-3 -7 0 
-15 -19 0 
-3 -8 0 
-15 -20 0 
-4 -5 0 
-16 -17 0 
-4 -6 0 
-16 -18 0 
-4 -7 0 
-16 -19 0 
-4 -8 0 
-16 -20 0 
-5 -9 0 
-17 -21 0 
-5 -10 0 
-17 -22 0 
-5 -11 0 
-17 -23 0 
-5 -12 0 
-17 -24 0 
-6 -9 0 
-18 -21 0 
-6 -10 0 
-18 -22 0 
-6 -11 0 
-18 -23 0 
-6 -12 0 
-18 -24 0 
-7 -9 0 
-19 -21 0 
-7 -10 0 
-19 -22 0 
-7 -11 0 
-19 -23 0 
-7 -12 0 
-19 -24 0 
-8 -9 0 
-20 -21 0 
-8 -10 0 
-20 -22 0 
-8 -11 0 
-20 -23 0 
-8 -12 0 
-20 -24 0 
-13 -17 0 
-1 -5 0 
-13 -18 0 
-1 -6 0 
-13 -19 0 
-1 -7 0 
-13 -20 0 
-1 -8 0 
-14 -17 0 
-2 -5 0 
-14 -18 0 
-2 -6 0 
-14 -19 0 
-2 -7 0 
-14 -20 0 
-2 -8 0 
-15 -17 0 
-3 -5 0 
-15 -18 0 
-3 -6 0 
-15 -19 0 
-3 -7 0 
-15 -20 0 
-3 -8 0 
-16 -17 0 
-4 -5 0 
-16 -18 0 
-4 -6 0 
-16 -19 0 
-4 -7 0 
-16 -20 0 
-4 -8 0 
-17 -21 0 
-5 -9 0 
-17 -22 0 
-5 -10 0 
-17 -23 0 
-5 -11 0 
-17 -24 0 
-5 -12 0 
-18 -21 0 
-6 -9 0 
-18 -22 0 
-6 -10 0 
-18 -23 0 
-6 -11 0 
-18 -24 0 
-6 -12 0 
-19 -21 0 
-7 -9 0 
-19 -22 0 
-7 -10 0 
-19 -23 0 
-7 -11 0 
-19 -24 0 
-7 -12 0 
-20 -21 0 
-8 -9 0 
-20 -22 0 
-8 -10 0 
-20 -23 0 
-8 -11 0 
-20 -24 0 
-8 -12 0 
